
  32    4
  10   10   10   10

   0   0   0   0   0   1 2 
   9  10  10  10  10   1 3 
   3  10  10  10  10   2 6 4 
   5  10  10  10  10   1 5 
   2  10  10  10  10   2 10 7 
   9  10  10  10  10   2 10 7 
   8  10  10  10  10   1 8 
   1  10  10  10  10   2 15 9 
   3  10  10  10  10   1 11 
   8  10  10  10  10   1 11 
   9  10  10  10  10   1 12 
   1  10  10  10  10   1 13 
   6  10  10  10  10   2 16 14 
   1  10  10  10  10   1 17 
   5  10  10  10  10   1 16 
   6  10  10  10  10   4 25 22 20 18 
   5  10  10  10  10   4 25 22 20 18 
   6  10  10  10  10   1 19 
   3  10  10  10  10   1 21 
   6  10  10  10  10   1 21 
   5  10  10  10  10   2 27 23 
   7  10  10  10  10   2 27 23 
   9  10  10  10  10   1 24 
   1  10  10  10  10   2 31 26 
   4  10  10  10  10   2 31 27 
   1  10  10  10  10   1 28 
   5  10  10  10  10   1 28 
   6  10  10  10  10   1 29 
   4  10  10  10  10   1 30 
   3  10  10  10  10   1 32
   4  10  10  10  10   1 32
   0   0   0   0   0   0 
